15 4 
1834	1834	1834	1834	
858	24	29	
491	327	393	
940	576	1094	
973	467	829	
889	901	1401	
248	199	354	
500	202	260	
840	616	859	
478	504	545	
527	893	1047	
940	502	804	
366	613	812	
188	474	532	
482	88	118	
754	950	1249	
